letting SIZE be 4
letting values be
[
 [ 0, 0, 4, 0 ],
 [ 0, 4, 0, 0 ],
 [ 0, 0, 0, 4 ],
 [ 4, 0, 0, 3 ]
]
$ specify last index in array lt; lt[0] is first entry
letting lastdx be 4
$ [i1,j1,i2,j2] requires that values[i1,j1]<values[i2,j2]
letting lt be
[
    [2,1,1,1],
    [2,3,2,2],
    [3,2,3,3],
    [3,3,3,4],
    [4,3,4,4]
]

